120
150
94
64
35
55
55
40
23
57
35
33
42
55
53
23
36
29
27
79
36
35
53
79
38
64
23
31
47
72
68
78
71
67
61
23
66
25
41
40
40
30
30
36
100
46
99
35
55
87
94
30
100
46
96
53
89
57
63
94
27
61
47
42
52
40
58
45
35
70
69
79
55
77
68
81
46
77
27
78
72
49
100
83
67
27
70
53
90
63
88
75
75
87
87
69
79
87
67
83
68
79
94
30
88
81
31
38
71
81
64
65
85
49
100
85
65
81
30
39
49
100
